46
75
52	23
51	18
50	8
49	18
48	13
47	19
46	15
45	12
44	20
43	21
42	21
41	19
40	17
39	19
38	16
37	14
36	10
35	21
34	15
33	12
32	12
31	19
30	16
29	17
28	13
27	21
26	15
25	14
24	18
23	19
22	21
21	19
20	19
19	14
18	12
17	14
16	15
15	11
14	24
13	13
12	14
11	12
10	20
9	18
8	17
7	12
